
Gurobi 12.0.0 (win64) logging started Mon May  4 22:40:19 2026

Set parameter LogFile to value "C:\Users\Asus\Documents\GitHub\logistics-model2\internal-logistics-model2\results\MR_MV_RD\case1\result_MR_MV_RD_case1_P12_R3_eps9999_2026_05_04_22_40.log"
Gurobi Optimizer version 12.0.0 build v12.0.0rc1 (win64 - Windows 10.0 (19045.2))

CPU model: 12th Gen Intel(R) Core(TM) i7-12650H, instruction set [SSE2|AVX|AVX2]
Thread count: 10 physical cores, 16 logical processors, using up to 16 threads

Non-default parameters:
TimeLimit  600
MIPGap  0.01
Presolve  2

Optimize a model with 35017 rows, 10137 columns and 180354 nonzeros
Model fingerprint: 0x2f3d580a
Variable types: 1389 continuous, 8748 integer (8478 binary)
Coefficient statistics:
  Matrix range     [1e+00, 5e+02]
  Objective range  [1e-03, 1e+00]
  Bounds range     [1e+00, 3e+01]
  RHS range        [1e+00, 1e+04]
Presolve removed 12411 rows and 3609 columns
Presolve time: 2.62s
Presolved: 22606 rows, 6528 columns, 156496 nonzeros
Variable types: 903 continuous, 5625 integer (5409 binary)
Root relaxation presolve removed 69 rows and 0 columns
Root relaxation presolved: 22537 rows, 6588 columns, 156151 nonzeros


Root relaxation: objective 0.000000e+00, 992 iterations, 0.19 seconds (0.41 work units)

    Nodes    |    Current Node    |     Objective Bounds      |     Work
 Expl Unexpl |  Obj  Depth IntInf | Incumbent    BestBd   Gap | It/Node Time

     0     0    0.00000    0  173          -    0.00000      -     -    3s
     0     0    0.00000    0  243          -    0.00000      -     -    4s
     0     0    0.00000    0  206          -    0.00000      -     -    4s
H    0     0                     302.8960000    0.00000   100%     -    6s
H    0     0                     289.8780000    0.00000   100%     -    6s
H    0     0                     288.8730000    0.00000   100%     -    6s
     0     0    0.00000    0  175  288.87300    0.00000   100%     -    7s
H    0     0                     288.8500000    0.00000   100%     -    7s
H    0     0                     269.7640000    0.00000   100%     -    7s
     0     0    0.00000    0  183  269.76400    0.00000   100%     -    7s
H    0     0                     267.7560000    0.00000   100%     -    7s
H    0     0                     252.5250000    0.00900   100%     -    9s
H    0     0                     239.5180000    0.00900   100%     -    9s
H    0     0                     226.5000000    0.00900   100%     -    9s
H    0     0                     225.5070000    0.00900   100%     -    9s
     0     0    0.00900    0  140  225.50700    0.00900   100%     -    9s
     0     0    0.00900    0  159  225.50700    0.00900   100%     -    9s
     0     0    0.01650    0  229  225.50700    0.01650   100%     -   10s
     0     0    0.01800    0  204  225.50700    0.01800   100%     -   10s
     0     0    0.01800    0  212  225.50700    0.01800   100%     -   10s
     0     0    0.01800    0  228  225.50700    0.01800   100%     -   11s
     0     0    0.01800    0  209  225.50700    0.01800   100%     -   11s
H    0     0                     225.5050000    0.01800   100%     -   12s
H    0     0                     225.5000000    0.01800   100%     -   12s
     0     0    0.01800    0  197  225.50000    0.01800   100%     -   12s
     0     0    0.01800    0  138  225.50000    0.01800   100%     -   15s
H    0     0                     224.5000000    0.01800   100%     -   15s
     0     0    0.01800    0  150  224.50000    0.01800   100%     -   15s
H    0     0                     223.5000000    0.01800   100%     -   16s
H    0     0                     215.5740000    0.01800   100%     -   17s
H    0     0                     213.4460000    0.01800   100%     -   17s
     0     0    0.01800    0  144  213.44600    0.01800   100%     -   18s
H    0     0                     213.4400000    0.01800   100%     -   18s
H    0     0                     213.4240000    0.01800   100%     -   18s
H    0     0                     213.4120000    0.01800   100%     -   18s
H    0     0                     212.5970000    0.01800   100%     -   19s
H    0     0                     209.5280000    0.01800   100%     -   19s
H    0     0                     209.4180000    0.01800   100%     -   19s
H    0     0                     207.4370000    0.01800   100%     -   19s
H    0     0                     203.4150000    0.01800   100%     -   19s
     0     0    0.01800    0  163  203.41500    0.01800   100%     -   19s
H    0     0                     201.4390000    0.01851   100%     -   20s
     0     0    0.01851    0  263  201.43900    0.01851   100%     -   20s
H    0     0                     200.4420000    0.01861   100%     -   20s
     0     0    0.01861    0  326  200.44200    0.01861   100%     -   20s
H    0     0                     197.4110000    0.01935   100%     -   22s
     0     0    0.01935    0  371  197.41100    0.01935   100%     -   22s
H    0     0                     197.3950000    0.01935   100%     -   22s
     0     0    0.01935    0  350  197.39500    0.01935   100%     -   22s
H    0     0                     194.3890000    0.02011   100%     -   24s
     0     0    0.02011    0  429  194.38900    0.02011   100%     -   24s
     0     0    0.02018    0  412  194.38900    0.02018   100%     -   24s
     0     0    0.02045    0  473  194.38900    0.02045   100%     -   25s
     0     0    0.02045    0  459  194.38900    0.02045   100%     -   25s
     0     0    0.02128    0  544  194.38900    0.02128   100%     -   26s
     0     0    0.02138    0  530  194.38900    0.02138   100%     -   27s
     0     0    0.02138    0  493  194.38900    0.02138   100%     -   29s
     0     0    0.02138    0  469  194.38900    0.02138   100%     -   29s
     0     0    0.02138    0  535  194.38900    0.02138   100%     -   30s
     0     0    0.02170    0  513  194.38900    0.02170   100%     -   30s
     0     0    0.02170    0  535  194.38900    0.02170   100%     -   31s
     0     0    0.02170    0  509  194.38900    0.02170   100%     -   31s
H    0     0                     192.3840000    0.02170   100%     -   33s
     0     0    0.02170    0  322  192.38400    0.02170   100%     -   33s
     0     0    0.02174    0  350  192.38400    0.02174   100%     -   33s
     0     0    0.02174    0  373  192.38400    0.02174   100%     -   34s
     0     0    0.02174    0  362  192.38400    0.02174   100%     -   34s
     0     0    0.02174    0  357  192.38400    0.02174   100%     -   36s
H    0     0                     191.4080000    0.02174   100%     -   36s
     0     0    0.02174    0  339  191.40800    0.02174   100%     -   36s
     0     2    0.02200    0  339  191.40800    0.02200   100%     -   38s
    25    45    0.02201    5  416  191.40800    0.02200   100%   576   40s
H  480   459                     190.4310000    0.02200   100%   156   43s
   742   674    0.02754   14  273  190.43100    0.02200   100%   120   45s
  1534  1263    0.03198   35  282  190.43100    0.02200   100%   115   50s
  1673  1422    0.05283   52  133  190.43100    0.02200   100%   113   55s
H 1789  1454                     188.4190000    0.02200   100%   109   57s
  1926  1542    0.02556   16  339  188.41900    0.02200   100%   108   63s
  1928  1543    0.02766   18  139  188.41900    0.02200   100%   108   66s
  1929  1544    0.02585   22  144  188.41900    0.02200   100%   108   71s
  1931  1545    0.02430   10  304  188.41900    0.02260   100%   108   80s
  1933  1547    0.03070   13  247  188.41900    0.03070   100%   108   99s
  1934  1547  153.74240   57  290  188.41900    0.03070   100%   108  100s
  1935  1548    0.03434    4  168  188.41900    0.03434   100%   108  105s
  1937  1549    0.05313   23  185  188.41900    0.03435   100%   108  110s
  1939  1551    0.06900   28  147  188.41900    0.03480   100%   107  118s
  1941  1552    0.03554   35  171  188.41900    0.03554   100%   107  123s
H 1942  1475                     184.3870000    0.03572   100%   107  131s
H 1943  1401                     184.3790000    0.03572   100%   107  134s
  1945  1403    0.05419   37  403  184.37900    0.03583   100%   107  138s
  1946  1403    0.03583   13  301  184.37900    0.03583   100%   107  140s
  1947  1404   70.09651   43  112  184.37900    0.03583   100%   107  150s
H 1947  1333                     183.4090000    0.03583   100%   107  151s
  1949  1334    0.03596   15  185  183.40900    0.03596   100%   107  158s
H 1949  1267                     183.3870000    0.03597   100%   107  159s
  1950  1268    0.07588   45  394  183.38700    0.03597   100%   107  162s
H 1950  1204                     179.3200000    0.03600   100%   107  172s
H 1951  1144                     176.3200000    0.03600   100%   107  174s
H 1951  1087                     176.3110000    0.03600   100%   107  174s
H 1951  1032                     174.3100000    0.03600   100%   107  174s
  1953  1033    0.03600   21  107  174.31000    0.03600   100%   107  180s
  1955  1034    0.03600    8  143  174.31000    0.03600   100%   107  187s
  1957  1036   71.15642   69  121  174.31000    0.03600   100%   106  196s
  1959  1037   77.22506   69  161  174.31000    0.03600   100%   106  203s
  1961  1038    0.06612   41  138  174.31000    0.03600   100%   106  208s
  1963  1040    0.07627   25  143  174.31000    0.03600   100%   106  213s
  1966  1043    0.03600   12  339  174.31000    0.03600   100%   287  219s
  1968  1044    0.11971   28  149  174.31000    0.03600   100%   287  222s
  1969  1045    0.03600   20  160  174.31000    0.03600   100%   287  227s
  1971  1046    0.03600   10  139  174.31000    0.03600   100%   287  235s
  1973  1048    0.05550   32  187  174.31000    0.03600   100%   286  243s
  1974  1048   71.15642   72  408  174.31000    0.03601   100%   286  245s
  1975  1049   82.23073   60  310  174.31000    0.03667   100%   286  253s
  1976  1050    0.03711   20  454  174.31000    0.03711   100%   286  256s
  1977  1050   42.08300   47  336  174.31000    0.03765   100%   286  265s
H 1978   998                     173.3070000    0.03771   100%   286  276s
  1980   999    0.06326   38  562  173.30700    0.03779   100%   285  281s
  1981  1000    0.03799   11  357  173.30700    0.03799   100%   285  291s
  1983  1001   47.18600   59  412  173.30700    0.03810   100%   285  305s
  1984  1002    0.03815   23  540  173.30700    0.03815   100%   285  312s
  1985  1003    0.03831   11  674  173.30700    0.03831   100%   285  323s
  1986  1003    0.03835   40  707  173.30700    0.03835   100%   284  327s
  1987  1004    0.09742   58  689  173.30700    0.03858   100%   284  341s
  1988  1005    0.07730   25  810  173.30700    0.03864   100%   284  346s
  1989  1005    0.03914    4  883  173.30700    0.03914   100%   284  355s
  1991  1007    0.04209   23  980  173.30700    0.04012   100%   284  365s
  1992  1007  120.18986   55  986  173.30700    0.04024   100%   284  370s
  1993  1008    0.05427   26  990  173.30700    0.04049   100%   283  376s
  1995  1009   70.09300   42  998  173.30700    0.04080   100%   283  395s
  1996  1010    0.04087   20 1019  173.30700    0.04087   100%   283  403s
  1997  1011    0.04098    8 1030  173.30700    0.04098   100%   283  408s
  1998  1011   47.18355   51 1054  173.30700    0.04104   100%   283  413s
  1999  1012   77.14900   54 1123  173.30700    0.04130   100%   283  419s
  2000  1013  145.29700   80 1189  173.30700    0.04138   100%   282  427s
  2001  1013    0.08010   22 1197  173.30700    0.04151   100%   282  434s
  2002  1014   52.07694   39 1209  173.30700    0.04156   100%   282  439s
  2003  1015    0.04162   29 1172  173.30700    0.04162   100%   282  445s
  2005  1016   51.12200   57 1148  173.30700    0.04172   100%   282  456s
  2006  1017  139.21500   55 1200  173.30700    0.04175   100%   282  462s
  2007  1017    0.04178   26 1182  173.30700    0.04178   100%   282  469s
  2008  1018    0.07788   32 1199  173.30700    0.04179   100%   281  474s
H 2008   966                     173.3000000    0.04182   100%   281  481s
H 2008   917                     169.2840000    0.04182   100%   281  481s
  2010   918   64.07000   51 1232  169.28400    0.04183   100%   281  488s
  2011   919    0.05927   38 1224  169.28400    0.04186   100%   281  494s
  2012   920    0.04186    9 1225  169.28400    0.04186   100%   281  499s
  2013   920   44.12764   45 1256  169.28400    0.04188   100%   281  506s
  2014   921    0.09838   46 1237  169.28400    0.04189   100%   281  512s
  2015   922    0.04190   17 1190  169.28400    0.04190   100%   280  517s
  2016   922    0.04191   13 1200  169.28400    0.04191   100%   280  524s
  2017   923    0.09653   30 1204  169.28400    0.04193   100%   280  531s
  2018   924    0.04193   15 1261  169.28400    0.04193   100%   280  535s
  2019   924    0.04195   14 1256  169.28400    0.04195   100%   280  542s
  2020   925    0.04195   10 1263  169.28400    0.04195   100%   280  547s
  2021   926    4.26893   41 1256  169.28400    0.04196   100%   280  554s
  2022   926    0.04897   25 1291  169.28400    0.04196   100%   279  561s
  2023   927    0.04197   11 1255  169.28400    0.04197   100%   279  567s
  2024   928    0.04198   17 1268  169.28400    0.04198   100%   279  573s
  2025   928   47.12780   58 1267  169.28400    0.04198   100%   279  581s
  2026   929    0.04199   16 1272  169.28400    0.04199   100%   279  587s
  2027   930    0.04199   26 1280  169.28400    0.04199   100%   279  593s
  2030   933   77.16700   60  339  169.28400    0.04199   100%   506  598s

Explored 2031 nodes (1154116 simplex iterations) in 600.02 seconds (813.84 work units)
Thread count was 16 (of 16 available processors)

Solution count 10: 169.284 173.3 173.307 ... 184.379

Time limit reached
Best objective 1.692840000000e+02, best bound 4.198926117486e-02, gap 99.9752%
